NAME : LIN105C
TYPE : PDTSP
DIMENSION : 105
EDGE_WEIGHT_TYPE : EUC_2D
NODE_COORD_SECTION
1 63 71
2 94 71
3 142 370
4 173 1276
5 205 1213
6 213 69
7 244 69
8 276 630
9 283 732
10 362 69
11 394 69
12 449 370
13 480 1276
14 512 1213
15 528 157
16 583 630
17 591 732
18 638 654
19 638 496
20 638 314
21 638 142
22 669 142
23 677 315
24 677 496
25 677 654
26 709 654
27 709 496
28 709 315
29 701 142
30 764 220
31 811 189
32 843 173
33 858 370
34 890 1276
35 921 1213
36 992 630
37 1000 732
38 1197 1276
39 1228 1213
40 1276 205
41 1299 630
42 1307 732
43 1362 654
44 1362 496
45 1362 291
46 1425 654
47 1425 496
48 1425 291
49 1417 173
50 1488 291
51 1488 496
52 1488 654
53 1551 654
54 1551 496
55 1551 291
56 1614 291
57 1614 496
58 1614 654
59 1732 189
60 1811 1276
61 1843 1213
62 1913 630
63 1921 732
64 2087 370
65 2118 1276
66 2150 1213
67 2189 205
68 2220 189
69 2220 630
70 2228 732
71 2244 142
72 2276 315
73 2276 496
74 2276 654
75 2315 654
76 2315 496
77 2315 315
78 2331 142
79 2346 315
80 2346 496
81 2346 654
82 2362 142
83 2402 157
84 2402 220
85 2480 142
86 2496 370
87 2528 1276
88 2559 1213
89 2630 630
90 2638 732
91 2756 69
92 2787 69
93 2803 370
94 2835 1276
95 2866 1213
96 2906 69
97 2937 69
98 2937 630
99 2945 732
100 3016 1276
101 3055 69
102 3087 69
103 606 220
104 1165 370
105 1780 370
PICKUP_AND_DELIVERY_SECTION
1 0 0 0 0 0 0
2 0 0 0 0 28 0
3 0 0 0 0 0 73
4 0 0 0 0 0 94
5 0 0 0 0 0 15
6 0 0 0 0 63 0
7 0 0 0 0 64 0
8 0 0 0 0 51 0
9 0 0 0 0 59 0
10 0 0 0 0 0 17
11 0 0 0 0 0 13
12 0 0 0 0 0 24
13 0 0 0 0 11 0
14 0 0 0 0 96 0
15 0 0 0 0 5 0
16 0 0 0 0 0 54
17 0 0 0 0 10 0
18 0 0 0 0 0 36
19 0 0 0 0 0 65
20 0 0 0 0 53 0
21 0 0 0 0 0 100
22 0 0 0 0 0 67
23 0 0 0 0 68 0
24 0 0 0 0 12 0
25 0 0 0 0 0 43
26 0 0 0 0 0 71
27 0 0 0 0 0 34
28 0 0 0 0 0 2
29 0 0 0 0 0 75
30 0 0 0 0 101 0
31 0 0 0 0 48 0
32 0 0 0 0 80 0
33 0 0 0 0 69 0
34 0 0 0 0 27 0
35 0 0 0 0 61 0
36 0 0 0 0 18 0
37 0 0 0 0 93 0
38 0 0 0 0 0 104
39 0 0 0 0 0 56
40 0 0 0 0 0 47
41 0 0 0 0 85 0
42 0 0 0 0 0 105
43 0 0 0 0 25 0
44 0 0 0 0 0 76
45 0 0 0 0 0 46
46 0 0 0 0 45 0
47 0 0 0 0 40 0
48 0 0 0 0 0 31
49 0 0 0 0 0 91
50 0 0 0 0 97 0
51 0 0 0 0 0 8
52 0 0 0 0 79 0
53 0 0 0 0 0 20
54 0 0 0 0 16 0
55 0 0 0 0 70 0
56 0 0 0 0 39 0
57 0 0 0 0 77 0
58 0 0 0 0 102 0
59 0 0 0 0 0 9
60 0 0 0 0 0 87
61 0 0 0 0 0 35
62 0 0 0 0 99 0
63 0 0 0 0 0 6
64 0 0 0 0 0 7
65 0 0 0 0 19 0
66 0 0 0 0 89 0
67 0 0 0 0 22 0
68 0 0 0 0 0 23
69 0 0 0 0 0 33
70 0 0 0 0 0 55
71 0 0 0 0 26 0
72 0 0 0 0 90 0
73 0 0 0 0 3 0
74 0 0 0 0 86 0
75 0 0 0 0 29 0
76 0 0 0 0 44 0
77 0 0 0 0 0 57
78 0 0 0 0 0 82
79 0 0 0 0 0 52
80 0 0 0 0 0 32
81 0 0 0 0 0 83
82 0 0 0 0 78 0
83 0 0 0 0 81 0
84 0 0 0 0 0 92
85 0 0 0 0 0 41
86 0 0 0 0 0 74
87 0 0 0 0 60 0
88 0 0 0 0 0 98
89 0 0 0 0 0 66
90 0 0 0 0 0 72
91 0 0 0 0 49 0
92 0 0 0 0 84 0
93 0 0 0 0 0 37
94 0 0 0 0 4 0
95 0 0 0 0 0 103
96 0 0 0 0 0 14
97 0 0 0 0 0 50
98 0 0 0 0 88 0
99 0 0 0 0 0 62
100 0 0 0 0 21 0
101 0 0 0 0 0 30
102 0 0 0 0 0 58
103 0 0 0 0 95 0
104 0 0 0 0 38 0
105 0 0 0 0 42 0
DEPOT_SECTION
1 
-1
EOF
